50
563 5067 882 294 563 2252 2352 588 563 588 2646 5630 2058 588 4504 882 1176 294 882 2815 2646 294 1689 1470 563 3941 4504 294 2815 3378 1176 5067 1470 1126 1689 882 2646 1764 2815 2815 1470 3941 2058 294 294 3378 5630 1764 1470 1126 
1563 14067 3882 1294 1563 6252 10352 2588 1563 2588 11646 15630 9058 2588 12504 3882 5176 1294 3882 7815 11646 1294 4689 6470 1563 10941 12504 1294 7815 9378 5176 14067 6470 3126 4689 3882 11646 7764 7815 7815 6470 10941 9058 1294 1294 9378 15630 7764 6470 3126 
49334
